#p b3lyp/3-21G* opt=(calcfc,ts,noeigen) scrf=(solvent=water) td=(singlets,nstates=5)

 chemfluor_top

0 1
O    -6.210475555772316   -0.423717567140677   0.8566822193921846
C    -5.246565136477417   -0.04348110414782372   0.20566372287129978
O    -5.314072054634921   0.6494505711518817   -0.9597139311389465
C    -6.645158831165711   0.9206735282134253   -1.4008399870747497
C    -3.831413949458286   -0.2984964373759654   0.6185316647541412
C    -2.790995458554854   0.13820228029698264   -0.1284569461352088
C    -1.4526535814869406   -0.11815879328522932   0.2875550836612256
N    -0.2989795630689546   0.19865150990321398   -0.2589690749339731
C    0.6679507939988873   -0.30949678516282614   0.5851011869541335
C    2.0947962587219027   -0.16746245669660267   0.3295754983504486
C    3.0665015039187185   -0.6870570949831536   1.192940036309911
C    4.4281077323593045   -0.5277943584273961   0.9091658571208739
C    4.846036253647282   0.15036418374674376   -0.23712373505629172
C    3.8870534559815746   0.6712805818092172   -1.1028544873851922
C    2.5240234377862882   0.5122172103555269   -0.8193973931753376
O    6.2020083569113105   0.23281376605114892   -0.39154495118260146
C    6.675114018556131   0.9153639720204304   -1.5459626553554897
C    0.08032454132427053   -0.9443771394367545   1.6604098508227927
N    -1.2722997201101953   -0.8220987926925911   1.4702269970729602
C    -2.32345301159144   -1.281674411170731   2.2558418234614606
C    -3.5858449178955243   -1.0396517392553468   1.8630837332413697
H    -7.1851014062271314   -0.012988445653855742   -1.5871369516329048
H    -6.583700131603328   1.4780834722841873   -2.3395893220040636
H    -7.174523493084049   1.5360638254176755   -0.6666480228392483
H    -2.9201428342712   0.6887990118376698   -1.0536402465692096
H    2.790412378012937   -1.2219580502934053   2.0964646396050948
H    5.170066855938518   -0.9375884262960389   1.5903688893594552
H    4.157525683575144   1.206367621479578   -2.0066186378081916
H    1.7908416118499713   0.9272773869953808   -1.5095589068063953
H    6.362890697166573   1.9649328177873977   -1.5398695541209664
H    6.352224752375   0.41123415101606686   -2.4628657580302096
H    7.768922770272251   0.8936740584531289   -1.5220903330925852
H    0.48407459676302544   -1.4578172120668396   2.5198817237288442
H    -2.076418239052873   -1.8213444659595264   3.1612722287997914
H    -4.437077814703806   -1.3802866687750095   2.4462102208889047


